\* Source Pyomo model name=UC *\

min 
x223:
+1 x145
+1 x146
+1 x147
+1 x148
+1 x149
+1 x150
+1 x151
+1 x152
+1 x153
+1 x154
+1 x155
+1 x156
+1 x157
+1 x158
+1 x159
+1 x160
+1 x161
+1 x162
+800 x19
+800 x20
+800 x21
+999999999999 x211
+999999999999 x212
+999999999999 x213
+999999999999 x214
+999999999999 x215
+999999999999 x216
+999999999999 x217
+999999999999 x218
+999999999999 x219
+800 x22
+999999999999 x220
+999999999999 x221
+999999999999 x222
+800 x23
+800 x24
+500 x25
+500 x26
+500 x27
+500 x28
+500 x29
+500 x30
+250 x31
+250 x32
+250 x33
+250 x34
+250 x35
+250 x36
+5 x55
+5 x56
+5 x57
+5 x58
+5 x59
+5 x60
+15 x61
+15 x62
+15 x63
+15 x64
+15 x65
+15 x66
+30 x67
+30 x68
+30 x69
+30 x70
+30 x71
+30 x72

s.t.

c_e_x224_:
+1 x1
-1 x19
+1 x37
= 1

c_e_x225_:
-1 x1
+1 x2
-1 x20
+1 x38
= 0

c_e_x226_:
-1 x2
-1 x21
+1 x3
+1 x39
= 0

c_e_x227_:
-1 x22
-1 x3
+1 x4
+1 x40
= 0

c_e_x228_:
-1 x23
-1 x4
+1 x41
+1 x5
= 0

c_e_x229_:
-1 x24
+1 x42
-1 x5
+1 x6
= 0

c_e_x230_:
-1 x25
+1 x43
+1 x7
= 0

c_e_x231_:
-1 x26
+1 x44
-1 x7
+1 x8
= 0

c_e_x232_:
-1 x27
+1 x45
-1 x8
+1 x9
= 0

c_e_x233_:
+1 x10
-1 x28
+1 x46
-1 x9
= 0

c_e_x234_:
-1 x10
+1 x11
-1 x29
+1 x47
= 0

c_e_x235_:
-1 x11
+1 x12
-1 x30
+1 x48
= 0

c_e_x236_:
+1 x13
-1 x31
+1 x49
= 0

c_e_x237_:
-1 x13
+1 x14
-1 x32
+1 x50
= 0

c_e_x238_:
-1 x14
+1 x15
-1 x33
+1 x51
= 0

c_e_x239_:
-1 x15
+1 x16
-1 x34
+1 x52
= 0

c_e_x240_:
-1 x16
+1 x17
-1 x35
+1 x53
= 0

c_e_x241_:
-1 x17
+1 x18
-1 x36
+1 x54
= 0

c_e_x242_:
-80 x1
-1 x109
+1 x55
= 0

c_e_x243_:
-1 x110
-80 x2
+1 x56
= 0

c_e_x244_:
-1 x111
-80 x3
+1 x57
= 0

c_e_x245_:
-1 x112
-80 x4
+1 x58
= 0

c_e_x246_:
-1 x113
-80 x5
+1 x59
= 0

c_e_x247_:
-1 x114
-80 x6
+1 x60
= 0

c_e_x248_:
-1 x115
+1 x61
-50 x7
= 0

c_e_x249_:
-1 x116
+1 x62
-50 x8
= 0

c_e_x250_:
-1 x117
+1 x63
-50 x9
= 0

c_e_x251_:
-50 x10
-1 x118
+1 x64
= 0

c_e_x252_:
-50 x11
-1 x119
+1 x65
= 0

c_e_x253_:
-50 x12
-1 x120
+1 x66
= 0

c_e_x254_:
-1 x121
-30 x13
+1 x67
= 0

c_e_x255_:
-1 x122
-30 x14
+1 x68
= 0

c_e_x256_:
-1 x123
-30 x15
+1 x69
= 0

c_e_x257_:
-1 x124
-30 x16
+1 x70
= 0

c_e_x258_:
-1 x125
-30 x17
+1 x71
= 0

c_e_x259_:
-1 x126
-30 x18
+1 x72
= 0

c_e_x260_:
-80 x1
+1 x73
-1 x91
= 0

c_e_x261_:
-80 x2
+1 x74
-1 x92
= 0

c_e_x262_:
-80 x3
+1 x75
-1 x93
= 0

c_e_x263_:
-80 x4
+1 x76
-1 x94
= 0

c_e_x264_:
-80 x5
+1 x77
-1 x95
= 0

c_e_x265_:
-80 x6
+1 x78
-1 x96
= 0

c_e_x266_:
-50 x7
+1 x79
-1 x97
= 0

c_e_x267_:
-50 x8
+1 x80
-1 x98
= 0

c_e_x268_:
+1 x81
-50 x9
-1 x99
= 0

c_e_x269_:
-50 x10
-1 x100
+1 x82
= 0

c_e_x270_:
-1 x101
-50 x11
+1 x83
= 0

c_e_x271_:
-1 x102
-50 x12
+1 x84
= 0

c_e_x272_:
-1 x103
-30 x13
+1 x85
= 0

c_e_x273_:
-1 x104
-30 x14
+1 x86
= 0

c_e_x274_:
-1 x105
-30 x15
+1 x87
= 0

c_e_x275_:
-1 x106
-30 x16
+1 x88
= 0

c_e_x276_:
-1 x107
-30 x17
+1 x89
= 0

c_e_x277_:
-1 x108
-30 x18
+1 x90
= 0

c_e_x278_:
-1 x109
-1 x127
+1 x91
= 0

c_e_x279_:
-1 x110
-1 x128
+1 x92
= 0

c_e_x280_:
-1 x111
-1 x129
+1 x93
= 0

c_e_x281_:
-1 x112
-1 x130
+1 x94
= 0

c_e_x282_:
-1 x113
-1 x131
+1 x95
= 0

c_e_x283_:
-1 x114
-1 x132
+1 x96
= 0

c_e_x284_:
-1 x115
-1 x133
+1 x97
= 0

c_e_x285_:
-1 x116
-1 x134
+1 x98
= 0

c_e_x286_:
-1 x117
-1 x135
+1 x99
= 0

c_e_x287_:
+1 x100
-1 x118
-1 x136
= 0

c_e_x288_:
+1 x101
-1 x119
-1 x137
= 0

c_e_x289_:
+1 x102
-1 x120
-1 x138
= 0

c_e_x290_:
+1 x103
-1 x121
-1 x139
= 0

c_e_x291_:
+1 x104
-1 x122
-1 x140
= 0

c_e_x292_:
+1 x105
-1 x123
-1 x141
= 0

c_e_x293_:
+1 x106
-1 x124
-1 x142
= 0

c_e_x294_:
+1 x107
-1 x125
-1 x143
= 0

c_e_x295_:
+1 x108
-1 x126
-1 x144
= 0

c_e_x296_:
-1 x127
-1 x55
+1 x73
= 0

c_e_x297_:
-1 x128
-1 x56
+1 x74
= 0

c_e_x298_:
-1 x129
-1 x57
+1 x75
= 0

c_e_x299_:
-1 x130
-1 x58
+1 x76
= 0

c_e_x300_:
-1 x131
-1 x59
+1 x77
= 0

c_e_x301_:
-1 x132
-1 x60
+1 x78
= 0

c_e_x302_:
-1 x133
-1 x61
+1 x79
= 0

c_e_x303_:
-1 x134
-1 x62
+1 x80
= 0

c_e_x304_:
-1 x135
-1 x63
+1 x81
= 0

c_e_x305_:
-1 x136
-1 x64
+1 x82
= 0

c_e_x306_:
-1 x137
-1 x65
+1 x83
= 0

c_e_x307_:
-1 x138
-1 x66
+1 x84
= 0

c_e_x308_:
-1 x139
-1 x67
+1 x85
= 0

c_e_x309_:
-1 x140
-1 x68
+1 x86
= 0

c_e_x310_:
-1 x141
-1 x69
+1 x87
= 0

c_e_x311_:
-1 x142
-1 x70
+1 x88
= 0

c_e_x312_:
-1 x143
-1 x71
+1 x89
= 0

c_e_x313_:
-1 x144
-1 x72
+1 x90
= 0

c_u_x314_:
+1 x55
-1 x73
<= 0

c_u_x315_:
+1 x56
-1 x74
<= 0

c_u_x316_:
+1 x57
-1 x75
<= 0

c_u_x317_:
+1 x58
-1 x76
<= 0

c_u_x318_:
+1 x59
-1 x77
<= 0

c_u_x319_:
+1 x60
-1 x78
<= 0

c_u_x320_:
+1 x61
-1 x79
<= 0

c_u_x321_:
+1 x62
-1 x80
<= 0

c_u_x322_:
+1 x63
-1 x81
<= 0

c_u_x323_:
+1 x64
-1 x82
<= 0

c_u_x324_:
+1 x65
-1 x83
<= 0

c_u_x325_:
+1 x66
-1 x84
<= 0

c_u_x326_:
+1 x67
-1 x85
<= 0

c_u_x327_:
+1 x68
-1 x86
<= 0

c_u_x328_:
+1 x69
-1 x87
<= 0

c_u_x329_:
+1 x70
-1 x88
<= 0

c_u_x330_:
+1 x71
-1 x89
<= 0

c_u_x331_:
+1 x72
-1 x90
<= 0

c_u_x332_:
+1 x109
-1 x91
<= 0

c_u_x333_:
+1 x110
-1 x92
<= 0

c_u_x334_:
+1 x111
-1 x93
<= 0

c_u_x335_:
+1 x112
-1 x94
<= 0

c_u_x336_:
+1 x113
-1 x95
<= 0

c_u_x337_:
+1 x114
-1 x96
<= 0

c_u_x338_:
+1 x115
-1 x97
<= 0

c_u_x339_:
+1 x116
-1 x98
<= 0

c_u_x340_:
+1 x117
-1 x99
<= 0

c_u_x341_:
-1 x100
+1 x118
<= 0

c_u_x342_:
-1 x101
+1 x119
<= 0

c_u_x343_:
-1 x102
+1 x120
<= 0

c_u_x344_:
-1 x103
+1 x121
<= 0

c_u_x345_:
-1 x104
+1 x122
<= 0

c_u_x346_:
-1 x105
+1 x123
<= 0

c_u_x347_:
-1 x106
+1 x124
<= 0

c_u_x348_:
-1 x107
+1 x125
<= 0

c_u_x349_:
-1 x108
+1 x126
<= 0

c_u_x350_:
-220 x1
+1 x109
+1 x127
+200 x19
+220 x38
<= 0

c_u_x351_:
+1 x110
+1 x128
-220 x2
+200 x20
+220 x39
<= 0

c_u_x352_:
+1 x111
+1 x129
+200 x21
-220 x3
+220 x40
<= 0

c_u_x353_:
+1 x112
+1 x130
+200 x22
-220 x4
+220 x41
<= 0

c_u_x354_:
+1 x113
+1 x131
+200 x23
+220 x42
-220 x5
<= 0

c_u_x355_:
+1 x115
+1 x133
+130 x25
+150 x44
-150 x7
<= 0

c_u_x356_:
+1 x116
+1 x134
+130 x26
+150 x45
-150 x8
<= 0

c_u_x357_:
+1 x117
+1 x135
+130 x27
+150 x46
-150 x9
<= 0

c_u_x358_:
-150 x10
+1 x118
+1 x136
+130 x28
+150 x47
<= 0

c_u_x359_:
-150 x11
+1 x119
+1 x137
+130 x29
+150 x48
<= 0

c_u_x360_:
+1 x121
-70 x13
+1 x139
+60 x31
<= 0

c_u_x361_:
+1 x122
-70 x14
+1 x140
+60 x32
<= 0

c_u_x362_:
+1 x123
+1 x141
-70 x15
+60 x33
<= 0

c_u_x363_:
+1 x124
+1 x142
-70 x16
+60 x34
<= 0

c_u_x364_:
+1 x125
+1 x143
-70 x17
+60 x35
<= 0

c_u_x365_:
+1 x126
+1 x144
-70 x18
+60 x36
<= 0

c_u_x366_:
+1 x121
-70 x13
+1 x139
+70 x50
<= 0

c_u_x367_:
+1 x122
-70 x14
+1 x140
+70 x51
<= 0

c_u_x368_:
+1 x123
+1 x141
-70 x15
+70 x52
<= 0

c_u_x369_:
+1 x124
+1 x142
-70 x16
+70 x53
<= 0

c_u_x370_:
+1 x125
+1 x143
-70 x17
+70 x54
<= 0

c_u_x371_:
-50 x1
+1 x109
+30 x19
<= 40

c_u_x372_:
-1 x109
+1 x110
-50 x2
+30 x20
<= 0

c_u_x373_:
-1 x110
+1 x111
+30 x21
-50 x3
<= 0

c_u_x374_:
-1 x111
+1 x112
+30 x22
-50 x4
<= 0

c_u_x375_:
-1 x112
+1 x113
+30 x23
-50 x5
<= 0

c_u_x376_:
-1 x113
+1 x114
+30 x24
-50 x6
<= 0

c_u_x377_:
+1 x115
+40 x25
-60 x7
<= 0

c_u_x378_:
-1 x115
+1 x116
+40 x26
-60 x8
<= 0

c_u_x379_:
-1 x116
+1 x117
+40 x27
-60 x9
<= 0

c_u_x380_:
-60 x10
-1 x117
+1 x118
+40 x28
<= 0

c_u_x381_:
-60 x11
-1 x118
+1 x119
+40 x29
<= 0

c_u_x382_:
-1 x119
-60 x12
+1 x120
+40 x30
<= 0

c_u_x383_:
+1 x121
-70 x13
+60 x31
<= 0

c_u_x384_:
-1 x121
+1 x122
-70 x14
+60 x32
<= 0

c_u_x385_:
-1 x122
+1 x123
-70 x15
+60 x33
<= 0

c_u_x386_:
-1 x123
+1 x124
-70 x16
+60 x34
<= 0

c_u_x387_:
-1 x124
+1 x125
-70 x17
+60 x35
<= 0

c_u_x388_:
-1 x125
+1 x126
-70 x18
+60 x36
<= 0

c_u_x389_:
-1 x109
+30 x37
<= -10

c_u_x390_:
-30 x1
+1 x109
-1 x110
+30 x38
<= 0

c_u_x391_:
+1 x110
-1 x111
-30 x2
+30 x39
<= 0

c_u_x392_:
+1 x111
-1 x112
-30 x3
+30 x40
<= 0

c_u_x393_:
+1 x112
-1 x113
-30 x4
+30 x41
<= 0

c_u_x394_:
+1 x113
-1 x114
+30 x42
-30 x5
<= 0

c_u_x395_:
-1 x115
+40 x43
<= 0

c_u_x396_:
+1 x115
-1 x116
+40 x44
-40 x7
<= 0

c_u_x397_:
+1 x116
-1 x117
+40 x45
-40 x8
<= 0

c_u_x398_:
+1 x117
-1 x118
+40 x46
-40 x9
<= 0

c_u_x399_:
-40 x10
+1 x118
-1 x119
+40 x47
<= 0

c_u_x400_:
-40 x11
+1 x119
-1 x120
+40 x48
<= 0

c_u_x401_:
-1 x121
+50 x49
<= 0

c_u_x402_:
+1 x121
-1 x122
-50 x13
+50 x50
<= 0

c_u_x403_:
+1 x122
-1 x123
-50 x14
+50 x51
<= 0

c_u_x404_:
+1 x123
-1 x124
-50 x15
+50 x52
<= 0

c_u_x405_:
+1 x124
-1 x125
-50 x16
+50 x53
<= 0

c_u_x406_:
+1 x125
-1 x126
-50 x17
+50 x54
<= 0

c_e_x407_:
+1 x211
+1 x55
+1 x61
+1 x67
= 240

c_e_x408_:
+1 x212
+1 x56
+1 x62
+1 x68
= 250

c_e_x409_:
+1 x213
+1 x57
+1 x63
+1 x69
= 200

c_e_x410_:
+1 x214
+1 x58
+1 x64
+1 x70
= 170

c_e_x411_:
+1 x215
+1 x59
+1 x65
+1 x71
= 230

c_e_x412_:
+1 x216
+1 x60
+1 x66
+1 x72
= 190

c_e_x413_:
-1 x199
+1 x205
+1 x211
= 0

c_e_x414_:
-1 x200
+1 x206
+1 x212
= 0

c_e_x415_:
-1 x201
+1 x207
+1 x213
= 0

c_e_x416_:
-1 x202
+1 x208
+1 x214
= 0

c_e_x417_:
-1 x203
+1 x209
+1 x215
= 0

c_e_x418_:
-1 x204
+1 x210
+1 x216
= 0

c_l_x419_:
+1 x73
+1 x79
+1 x85
>= 250

c_l_x420_:
+1 x74
+1 x80
+1 x86
>= 260

c_l_x421_:
+1 x75
+1 x81
+1 x87
>= 210

c_l_x422_:
+1 x76
+1 x82
+1 x88
>= 180

c_l_x423_:
+1 x77
+1 x83
+1 x89
>= 240

c_l_x424_:
+1 x78
+1 x84
+1 x90
>= 200

c_l_x425_:
+1 x127
+1 x133
+1 x139
>= 10

c_l_x426_:
+1 x128
+1 x134
+1 x140
>= 10

c_l_x427_:
+1 x129
+1 x135
+1 x141
>= 10

c_l_x428_:
+1 x130
+1 x136
+1 x142
>= 10

c_l_x429_:
+1 x131
+1 x137
+1 x143
>= 10

c_l_x430_:
+1 x132
+1 x138
+1 x144
>= 10

c_u_x431_:
+1 x19
+1 x20
-1 x3
<= 0

c_u_x432_:
+1 x20
+1 x21
-1 x4
<= 0

c_u_x433_:
+1 x21
+1 x22
-1 x5
<= 0

c_u_x434_:
+1 x22
+1 x23
-1 x6
<= 0

c_u_x435_:
+1 x25
-1 x8
<= 0

c_u_x436_:
+1 x26
-1 x9
<= 0

c_u_x437_:
-1 x10
+1 x27
<= 0

c_u_x438_:
-1 x11
+1 x28
<= 0

c_u_x439_:
-1 x12
+1 x29
<= 0

c_l_x440_:
+1 x13
>= 0

c_l_x441_:
+1 x14
>= 0

c_l_x442_:
+1 x15
>= 0

c_l_x443_:
+1 x16
>= 0

c_l_x444_:
+1 x17
>= 0

c_l_x445_:
+1 x18
>= 0

c_u_x446_:
+1 x2
+1 x37
<= 1

c_u_x447_:
+1 x3
+1 x38
<= 1

c_u_x448_:
+1 x39
+1 x4
<= 1

c_u_x449_:
+1 x40
+1 x5
<= 1

c_u_x450_:
+1 x41
+1 x6
<= 1

c_u_x451_:
+1 x43
+1 x8
<= 1

c_u_x452_:
+1 x44
+1 x9
<= 1

c_u_x453_:
+1 x10
+1 x45
<= 1

c_u_x454_:
+1 x11
+1 x46
<= 1

c_u_x455_:
+1 x12
+1 x47
<= 1

c_u_x456_:
+1 x17
+1 x49
+1 x50
+1 x51
+1 x52
<= 1

c_u_x457_:
+1 x18
+1 x50
+1 x51
+1 x52
+1 x53
<= 1

c_e_x458_:
+1 x13
+1 x14
+1 x15
+1 x16
= 0

c_e_ONE_VAR_CONSTANT: 
ONE_VAR_CONSTANT = 1.0

bounds
   0 <= x1 <= 1
   0 <= x2 <= 1
   0 <= x3 <= 1
   0 <= x4 <= 1
   0 <= x5 <= 1
   0 <= x6 <= 1
   0 <= x7 <= 1
   0 <= x8 <= 1
   0 <= x9 <= 1
   0 <= x10 <= 1
   0 <= x11 <= 1
   0 <= x12 <= 1
   0 <= x13 <= 1
   0 <= x14 <= 1
   0 <= x15 <= 1
   0 <= x16 <= 1
   0 <= x17 <= 1
   0 <= x18 <= 1
   0 <= x19 <= 1
   0 <= x20 <= 1
   0 <= x21 <= 1
   0 <= x22 <= 1
   0 <= x23 <= 1
   0 <= x24 <= 1
   0 <= x25 <= 1
   0 <= x26 <= 1
   0 <= x27 <= 1
   0 <= x28 <= 1
   0 <= x29 <= 1
   0 <= x30 <= 1
   0 <= x31 <= 1
   0 <= x32 <= 1
   0 <= x33 <= 1
   0 <= x34 <= 1
   0 <= x35 <= 1
   0 <= x36 <= 1
   0 <= x37 <= 1
   0 <= x38 <= 1
   0 <= x39 <= 1
   0 <= x40 <= 1
   0 <= x41 <= 1
   0 <= x42 <= 1
   0 <= x43 <= 1
   0 <= x44 <= 1
   0 <= x45 <= 1
   0 <= x46 <= 1
   0 <= x47 <= 1
   0 <= x48 <= 1
   0 <= x49 <= 1
   0 <= x50 <= 1
   0 <= x51 <= 1
   0 <= x52 <= 1
   0 <= x53 <= 1
   0 <= x54 <= 1
   0 <= x55 <= 99999
   0 <= x56 <= 99999
   0 <= x57 <= 99999
   0 <= x58 <= 99999
   0 <= x59 <= 99999
   0 <= x60 <= 99999
   0 <= x61 <= 99999
   0 <= x62 <= 99999
   0 <= x63 <= 99999
   0 <= x64 <= 99999
   0 <= x65 <= 99999
   0 <= x66 <= 99999
   0 <= x67 <= 99999
   0 <= x68 <= 99999
   0 <= x69 <= 99999
   0 <= x70 <= 99999
   0 <= x71 <= 99999
   0 <= x72 <= 99999
   0 <= x73 <= 99999
   0 <= x74 <= 99999
   0 <= x75 <= 99999
   0 <= x76 <= 99999
   0 <= x77 <= 99999
   0 <= x78 <= 99999
   0 <= x79 <= 99999
   0 <= x80 <= 99999
   0 <= x81 <= 99999
   0 <= x82 <= 99999
   0 <= x83 <= 99999
   0 <= x84 <= 99999
   0 <= x85 <= 99999
   0 <= x86 <= 99999
   0 <= x87 <= 99999
   0 <= x88 <= 99999
   0 <= x89 <= 99999
   0 <= x90 <= 99999
   0 <= x91 <= 99999
   0 <= x92 <= 99999
   0 <= x93 <= 99999
   0 <= x94 <= 99999
   0 <= x95 <= 99999
   0 <= x96 <= 99999
   0 <= x97 <= 99999
   0 <= x98 <= 99999
   0 <= x99 <= 99999
   0 <= x100 <= 99999
   0 <= x101 <= 99999
   0 <= x102 <= 99999
   0 <= x103 <= 99999
   0 <= x104 <= 99999
   0 <= x105 <= 99999
   0 <= x106 <= 99999
   0 <= x107 <= 99999
   0 <= x108 <= 99999
   0 <= x109 <= 99999
   0 <= x110 <= 99999
   0 <= x111 <= 99999
   0 <= x112 <= 99999
   0 <= x113 <= 99999
   0 <= x114 <= 99999
   0 <= x115 <= 99999
   0 <= x116 <= 99999
   0 <= x117 <= 99999
   0 <= x118 <= 99999
   0 <= x119 <= 99999
   0 <= x120 <= 99999
   0 <= x121 <= 99999
   0 <= x122 <= 99999
   0 <= x123 <= 99999
   0 <= x124 <= 99999
   0 <= x125 <= 99999
   0 <= x126 <= 99999
   0 <= x127 <= 99999
   0 <= x128 <= 99999
   0 <= x129 <= 99999
   0 <= x130 <= 99999
   0 <= x131 <= 99999
   0 <= x132 <= 99999
   0 <= x133 <= 99999
   0 <= x134 <= 99999
   0 <= x135 <= 99999
   0 <= x136 <= 99999
   0 <= x137 <= 99999
   0 <= x138 <= 99999
   0 <= x139 <= 99999
   0 <= x140 <= 99999
   0 <= x141 <= 99999
   0 <= x142 <= 99999
   0 <= x143 <= 99999
   0 <= x144 <= 99999
   0 <= x145 <= 9999999
   0 <= x146 <= 9999999
   0 <= x147 <= 9999999
   0 <= x148 <= 9999999
   0 <= x149 <= 9999999
   0 <= x150 <= 9999999
   0 <= x151 <= 9999999
   0 <= x152 <= 9999999
   0 <= x153 <= 9999999
   0 <= x154 <= 9999999
   0 <= x155 <= 9999999
   0 <= x156 <= 9999999
   0 <= x157 <= 9999999
   0 <= x158 <= 9999999
   0 <= x159 <= 9999999
   0 <= x160 <= 9999999
   0 <= x161 <= 9999999
   0 <= x162 <= 9999999
   0 <= x199 <= 9999999
   0 <= x200 <= 9999999
   0 <= x201 <= 9999999
   0 <= x202 <= 9999999
   0 <= x203 <= 9999999
   0 <= x204 <= 9999999
   0 <= x205 <= 9999999
   0 <= x206 <= 9999999
   0 <= x207 <= 9999999
   0 <= x208 <= 9999999
   0 <= x209 <= 9999999
   0 <= x210 <= 9999999
   0 <= x211 <= 9999999
   0 <= x212 <= 9999999
   0 <= x213 <= 9999999
   0 <= x214 <= 9999999
   0 <= x215 <= 9999999
   0 <= x216 <= 9999999
   0 <= x217 <= 9999999
   0 <= x218 <= 9999999
   0 <= x219 <= 9999999
   0 <= x220 <= 9999999
   0 <= x221 <= 9999999
   0 <= x222 <= 9999999
binary
  x1
  x2
  x3
  x4
  x5
  x6
  x7
  x8
  x9
  x10
  x11
  x12
  x13
  x14
  x15
  x16
  x17
  x18
  x19
  x20
  x21
  x22
  x23
  x24
  x25
  x26
  x27
  x28
  x29
  x30
  x31
  x32
  x33
  x34
  x35
  x36
  x37
  x38
  x39
  x40
  x41
  x42
  x43
  x44
  x45
  x46
  x47
  x48
  x49
  x50
  x51
  x52
  x53
  x54
end
